N=30;
start=[|
0, 27, 0, 0, 12, 0, 28, 0, 29, 16, 3, 25, 0, 5, 18, 26, 10, 30, 11, 2, 22, 0, 0, 4, 0, 21, 0, 14, 0, 0|
26, 13, 18, 0, 0, 5, 0, 9, 0, 12, 0, 0, 28, 0, 0, 14, 16, 23, 0, 11, 8, 0, 25, 20, 30, 27, 2, 0, 0, 1|
18, 29, 13, 0, 10, 28, 1, 0, 0, 2, 22, 0, 9, 0, 0, 0, 0, 0, 19, 21, 16, 0, 0, 27, 0, 26, 0, 15, 20, 11|
7, 0, 0, 20, 8, 0, 4, 0, 0, 27, 30, 28, 0, 15, 0, 3, 12, 0, 0, 14, 9, 6, 23, 5, 0, 18, 21, 0, 16, 0|
11, 0, 5, 2, 30, 14, 0, 0, 16, 0, 20, 23, 0, 0, 21, 0, 4, 10, 6, 0, 0, 22, 19, 0, 0, 9, 3, 13, 0, 0|
29, 2, 0, 0, 19, 13, 8, 0, 4, 11, 5, 0, 0, 0, 20, 22, 27, 7, 0, 0, 0, 14, 10, 23, 0, 0, 1, 0, 25, 0|
0, 0, 0, 0, 9, 26, 3, 21, 0, 6, 19, 0, 8, 0, 30, 17, 28, 15, 29, 25, 0, 0, 0, 1, 11, 7, 0, 16, 0, 2|
0, 15, 23, 0, 0, 17, 11, 19, 0, 0, 0, 0, 1, 26, 27, 0, 25, 28, 0, 0, 20, 13, 22, 29, 6, 12, 4, 0, 2, 0|
0, 0, 0, 29, 0, 22, 0, 0, 21, 20, 26, 0, 30, 2, 10, 0, 0, 1, 0, 0, 5, 9, 6, 17, 25, 19, 0, 24, 13, 27|
0, 30, 0, 9, 22, 0, 12, 15, 17, 23, 10, 6, 0, 0, 0, 0, 26, 0, 0, 5, 0, 0, 8, 28, 19, 2, 0, 29, 3, 13|
24, 23, 2, 0, 0, 29, 25, 0, 3, 0, 0, 14, 4, 0, 0, 9, 0, 0, 0, 0, 6, 21, 0, 18, 0, 30, 26, 19, 17, 5|
15, 21, 11, 24, 0, 0, 29, 0, 26, 0, 1, 17, 3, 23, 25, 30, 7, 8, 0, 0, 0, 5, 0, 22, 0, 0, 0, 0, 10, 19|
3, 0, 0, 23, 0, 16, 17, 28, 0, 19, 6, 21, 18, 13, 0, 8, 0, 0, 0, 0, 11, 1, 0, 14, 15, 0, 29, 9, 0, 0|
27, 14, 0, 19, 24, 0, 2, 0, 15, 13, 8, 7, 22, 0, 23, 0, 0, 0, 17, 0, 1, 18, 0, 0, 0, 16, 10, 0, 26, 0|
0, 19, 0, 30, 6, 12, 0, 20, 2, 24, 0, 22, 16, 0, 14, 10, 0, 11, 15, 0, 0, 7, 29, 0, 1, 28, 0, 0, 0, 0|
0, 7, 28, 0, 0, 0, 13, 16, 6, 0, 9, 10, 0, 30, 0, 20, 23, 0, 0, 18, 0, 11, 17, 0, 29, 0, 14, 0, 5, 21|
20, 0, 0, 7, 17, 0, 27, 13, 0, 0, 0, 0, 25, 1, 3, 0, 0, 22, 0, 28, 30, 16, 5, 0, 12, 15, 0, 23, 18, 8|
0, 5, 0, 12, 0, 21, 0, 11, 0, 26, 4, 0, 0, 29, 0, 0, 17, 2, 3, 13, 15, 0, 20, 10, 7, 0, 25, 0, 23, 6|
17, 4, 30, 25, 13, 0, 0, 18, 24, 0, 0, 9, 0, 11, 0, 0, 19, 0, 0, 27, 29, 0, 28, 0, 0, 1, 6, 20, 22, 23|
6, 0, 14, 0, 18, 2, 0, 8, 25, 15, 0, 0, 26, 0, 29, 0, 0, 21, 23, 0, 0, 10, 27, 0, 28, 3, 0, 4, 0, 12|
13, 0, 16, 10, 25, 23, 22, 4, 11, 0, 7, 19, 12, 8, 0, 0, 0, 0, 1, 24, 14, 0, 0, 0, 0, 0, 27, 0, 21, 18|
0, 0, 3, 18, 0, 24, 0, 27, 12, 0, 14, 11, 0, 0, 8, 1, 0, 6, 0, 30, 17, 26, 0, 0, 10, 0, 28, 5, 0, 7|
19, 16, 15, 0, 27, 0, 0, 0, 8, 25, 0, 0, 0, 7, 2, 6, 11, 4, 5, 23, 0, 29, 3, 0, 26, 10, 0, 1, 0, 0|
0, 3, 0, 0, 23, 0, 26, 1, 0, 0, 28, 13, 0, 10, 0, 12, 6, 25, 9, 0, 2, 15, 0, 19, 27, 0, 0, 21, 0, 20|
4, 17, 25, 0, 0, 11, 14, 0, 0, 0, 0, 20, 10, 0, 13, 28, 3, 0, 18, 19, 7, 0, 30, 26, 0, 22, 8, 12, 0, 0|
0, 0, 24, 11, 0, 6, 23, 3, 22, 0, 0, 1, 0, 0, 12, 0, 8, 0, 25, 10, 0, 4, 16, 0, 14, 0, 19, 2, 0, 9|
0, 0, 12, 15, 5, 0, 0, 26, 27, 10, 0, 8, 20, 21, 7, 2, 1, 19, 22, 0, 0, 28, 0, 25, 24, 0, 0, 0, 30, 0|
21, 20, 29, 8, 1, 18, 0, 0, 0, 17, 0, 26, 6, 9, 5, 0, 0, 0, 2, 0, 12, 0, 7, 0, 0, 0, 13, 28, 27, 15|
9, 25, 0, 0, 0, 7, 0, 0, 10, 3, 0, 0, 13, 27, 15, 4, 0, 0, 20, 12, 21, 0, 14, 6, 5, 0, 22, 0, 11, 0|
0, 0, 27, 22, 0, 0, 0, 6, 0, 7, 24, 0, 23, 12, 0, 29, 0, 20, 30, 17, 0, 0, 0, 13, 9, 14, 0, 10, 15, 16|];
